c 
c G(k,n,p) graph
c graph gen seed     : 44421
c number of vertices : 50
c max number of edges: 625
c number of classes  : 2
c edge density       : 0.200000
c edge probability   : 0.400000
c data structure     : sparse
c
c           Graph Stats
c number of vertices  : 50
c nonisolated vertices: 50
c number of edges     : 250
c edge density        : 0.204082
c max degree          : 15
c avg degree          : 10.00
c min degree          : 4
p col 50 250
e 1 46
e 1 43
e 1 39
e 1 36
e 1 29
e 1 26
e 1 24
e 1 22
e 1 20
e 1 19
e 1 18
e 1 15
e 1 12
e 1 3
e 1 2
e 2 50
e 2 49
e 2 48
e 2 45
e 2 40
e 2 38
e 2 33
e 2 32
e 2 30
e 2 17
e 2 8
e 2 5
e 3 50
e 3 47
e 3 40
e 3 35
e 3 34
e 3 17
e 3 9
e 3 6
e 3 4
e 4 43
e 4 29
e 4 24
e 4 22
e 4 21
e 4 20
e 4 16
e 4 12
e 5 46
e 5 43
e 5 26
e 5 24
e 5 22
e 5 20
e 5 18
e 5 15
e 6 29
e 6 26
e 6 22
e 6 21
e 6 20
e 6 19
e 6 18
e 6 15
e 6 14
e 7 36
e 7 26
e 7 22
e 7 21
e 7 19
e 7 15
e 7 14
e 8 44
e 8 43
e 8 42
e 8 31
e 8 26
e 8 24
e 8 21
e 8 18
e 8 14
e 8 10
e 9 42
e 9 39
e 9 28
e 9 24
e 9 22
e 9 21
e 9 20
e 9 18
e 9 15
e 9 14
e 9 10
e 10 47
e 10 35
e 10 33
e 10 25
e 10 17
e 11 43
e 11 36
e 11 31
e 11 18
e 12 37
e 12 30
e 12 27
e 12 23
e 12 17
e 12 13
e 13 44
e 13 39
e 13 28
e 13 20
e 13 18
e 14 50
e 14 49
e 14 48
e 14 45
e 14 40
e 14 34
e 14 33
e 14 30
e 14 25
e 15 47
e 15 35
e 15 34
e 15 33
e 15 32
e 15 30
e 15 25
e 15 23
e 15 17
e 16 50
e 16 49
e 16 45
e 16 40
e 16 38
e 16 37
e 16 33
e 16 27
e 17 46
e 17 44
e 17 42
e 17 28
e 17 18
e 18 49
e 18 47
e 18 40
e 18 35
e 18 33
e 18 32
e 18 25
e 19 50
e 19 48
e 19 45
e 19 38
e 19 33
e 19 25
e 19 23
e 20 45
e 20 40
e 20 35
e 20 34
e 20 33
e 20 32
e 20 27
e 20 23
e 21 38
e 21 35
e 21 34
e 21 30
e 21 27
e 22 45
e 22 38
e 22 37
e 22 35
e 22 32
e 22 30
e 22 27
e 22 25
e 23 41
e 23 36
e 23 29
e 23 28
e 23 26
e 24 50
e 24 48
e 24 38
e 24 33
e 24 32
e 24 25
e 25 44
e 25 43
e 25 42
e 25 41
e 25 39
e 25 36
e 26 50
e 26 49
e 26 48
e 26 47
e 26 45
e 26 30
e 27 44
e 27 43
e 27 42
e 27 39
e 27 31
e 27 29
e 28 50
e 28 47
e 28 45
e 28 34
e 28 30
e 29 47
e 29 45
e 29 38
e 29 37
e 29 30
e 30 44
e 31 48
e 31 47
e 31 45
e 31 33
e 32 46
e 32 41
e 32 36
e 33 36
e 34 46
e 34 44
e 35 43
e 36 50
e 36 49
e 36 45
e 36 40
e 37 43
e 37 42
e 37 41
e 38 43
e 38 42
e 38 39
e 39 50
e 39 47
e 39 40
e 40 44
e 41 49
e 41 48
e 41 47
e 42 50
e 42 47
e 43 50
e 43 49
e 43 48
e 44 48
e 44 45
